% Instance for pentominoes model generated using https://github.com/zayenz/minizinc-pentominoes-generator
% Instance generated for board size 5 with 10 tiles using 42 as seed
% Generated board
%    38222
%    18266
%    14966
%    144b6
%    145b7

size = 5;
tiles = 10;
expressions = [
    "( ([2 3 4 5 6 7 8 9 10 11]* 1{1} [2 3 4 5 6 7 8 9 10 11]{4} [2 3 4 5 6 7 8 9 10 11] 1{1} [2 3 4 5 6 7 8 9 10 11]{4} [2 3 4 5 6 7 8 9 10 11] 1{1} [2 3 4 5 6 7 8 9 10 11]{4} [2 3 4 5 6 7 8 9 10 11] 1{1} [2 3 4 5 6 7 8 9 10 11]*) | ([2 3 4 5 6 7 8 9 10 11]* 1{4} [2 3 4 5 6 7 8 9 10 11]*) | ([2 3 4 5 6 7 8 9 10 11]* 1{1} [2 3 4 5 6 7 8 9 10 11] [2 3 4 5 6 7 8 9 10 11]{4} 1{1} [2 3 4 5 6 7 8 9 10 11] [2 3 4 5 6 7 8 9 10 11]{4} 1{1} [2 3 4 5 6 7 8 9 10 11] [2 3 4 5 6 7 8 9 10 11]{4} 1{1} [2 3 4 5 6 7 8 9 10 11]*) )",
    "( ([1 3 4 5 6 7 8 9 10 11]* 2{3} [1 3 4 5 6 7 8 9 10 11] [1 3 4 5 6 7 8 9 10 11]{2} 2{1} [1 3 4 5 6 7 8 9 10 11]*) | ([1 3 4 5 6 7 8 9 10 11]* 2{2} [1 3 4 5 6 7 8 9 10 11] [1 3 4 5 6 7 8 9 10 11]{4} 2{1} [1 3 4 5 6 7 8 9 10 11] [1 3 4 5 6 7 8 9 10 11]{4} 2{1} [1 3 4 5 6 7 8 9 10 11]*) | ([1 3 4 5 6 7 8 9 10 11]* 2{1} [1 3 4 5 6 7 8 9 10 11]{2} [1 3 4 5 6 7 8 9 10 11] 2{3} [1 3 4 5 6 7 8 9 10 11]*) | ([1 3 4 5 6 7 8 9 10 11]* 2{1} [1 3 4 5 6 7 8 9 10 11]{4} [1 3 4 5 6 7 8 9 10 11] 2{1} [1 3 4 5 6 7 8 9 10 11]{4} [1 3 4 5 6 7 8 9 10 11] 2{2} [1 3 4 5 6 7 8 9 10 11]*) | ([1 3 4 5 6 7 8 9 10 11]* 2{3} [1 3 4 5 6 7 8 9 10 11]{2} [1 3 4 5 6 7 8 9 10 11] [1 3 4 5 6 7 8 9 10 11]{2} 2{1} [1 3 4 5 6 7 8 9 10 11]*) | ([1 3 4 5 6 7 8 9 10 11]* 2{2} [1 3 4 5 6 7 8 9 10 11]{3} [1 3 4 5 6 7 8 9 10 11] 2{1} [1 3 4 5 6 7 8 9 10 11]{4} [1 3 4 5 6 7 8 9 10 11] 2{1} [1 3 4 5 6 7 8 9 10 11]*) | ([1 3 4 5 6 7 8 9 10 11]* 2{1} [1 3 4 5 6 7 8 9 10 11]{2} [1 3 4 5 6 7 8 9 10 11] [1 3 4 5 6 7 8 9 10 11]{2} 2{3} [1 3 4 5 6 7 8 9 10 11]*) | ([1 3 4 5 6 7 8 9 10 11]* 2{1} [1 3 4 5 6 7 8 9 10 11] [1 3 4 5 6 7 8 9 10 11]{4} 2{1} [1 3 4 5 6 7 8 9 10 11] [1 3 4 5 6 7 8 9 10 11]{3} 2{2} [1 3 4 5 6 7 8 9 10 11]*) )",
    "( ([1 2 4 5 6 7 8 9 10 11]* 3{1} [1 2 4 5 6 7 8 9 10 11]*) )",
    "( ([1 2 3 5 6 7 8 9 10 11]* 4{1} [1 2 3 5 6 7 8 9 10 11]{3} [1 2 3 5 6 7 8 9 10 11] [1 2 3 5 6 7 8 9 10 11]{1} 4{2} [1 2 3 5 6 7 8 9 10 11]{2} [1 2 3 5 6 7 8 9 10 11] [1 2 3 5 6 7 8 9 10 11]{1} 4{1} [1 2 3 5 6 7 8 9 10 11]*) | ([1 2 3 5 6 7 8 9 10 11]* 4{3} [1 2 3 5 6 7 8 9 10 11]{2} [1 2 3 5 6 7 8 9 10 11] [1 2 3 5 6 7 8 9 10 11]{1} 4{1} [1 2 3 5 6 7 8 9 10 11]*) | ([1 2 3 5 6 7 8 9 10 11]* 4{1} [1 2 3 5 6 7 8 9 10 11]{1} [1 2 3 5 6 7 8 9 10 11] [1 2 3 5 6 7 8 9 10 11]{2} 4{2} [1 2 3 5 6 7 8 9 10 11]{1} [1 2 3 5 6 7 8 9 10 11] [1 2 3 5 6 7 8 9 10 11]{3} 4{1} [1 2 3 5 6 7 8 9 10 11]*) | ([1 2 3 5 6 7 8 9 10 11]* 4{1} [1 2 3 5 6 7 8 9 10 11]{1} [1 2 3 5 6 7 8 9 10 11] [1 2 3 5 6 7 8 9 10 11]{2} 4{3} [1 2 3 5 6 7 8 9 10 11]*) | ([1 2 3 5 6 7 8 9 10 11]* 4{3} [1 2 3 5 6 7 8 9 10 11] [1 2 3 5 6 7 8 9 10 11]{3} 4{1} [1 2 3 5 6 7 8 9 10 11]*) | ([1 2 3 5 6 7 8 9 10 11]* 4{1} [1 2 3 5 6 7 8 9 10 11]{3} [1 2 3 5 6 7 8 9 10 11] 4{3} [1 2 3 5 6 7 8 9 10 11]*) )",
    "( ([1 2 3 4 6 7 8 9 10 11]* 5{1} [1 2 3 4 6 7 8 9 10 11]*) )",
    "( ([1 2 3 4 5 7 8 9 10 11]* 6{2} [1 2 3 4 5 7 8 9 10 11] [1 2 3 4 5 7 8 9 10 11]{3} 6{2} [1 2 3 4 5 7 8 9 10 11] [1 2 3 4 5 7 8 9 10 11]{4} 6{1} [1 2 3 4 5 7 8 9 10 11]*) | ([1 2 3 4 5 7 8 9 10 11]* 6{2} [1 2 3 4 5 7 8 9 10 11]{1} [1 2 3 4 5 7 8 9 10 11] [1 2 3 4 5 7 8 9 10 11]{1} 6{3} [1 2 3 4 5 7 8 9 10 11]*) | ([1 2 3 4 5 7 8 9 10 11]* 6{1} [1 2 3 4 5 7 8 9 10 11]{4} [1 2 3 4 5 7 8 9 10 11] 6{2} [1 2 3 4 5 7 8 9 10 11]{3} [1 2 3 4 5 7 8 9 10 11] 6{2} [1 2 3 4 5 7 8 9 10 11]*) | ([1 2 3 4 5 7 8 9 10 11]* 6{3} [1 2 3 4 5 7 8 9 10 11]{1} [1 2 3 4 5 7 8 9 10 11] [1 2 3 4 5 7 8 9 10 11]{1} 6{2} [1 2 3 4 5 7 8 9 10 11]*) | ([1 2 3 4 5 7 8 9 10 11]* 6{2} [1 2 3 4 5 7 8 9 10 11]{3} [1 2 3 4 5 7 8 9 10 11] 6{2} [1 2 3 4 5 7 8 9 10 11]{3} [1 2 3 4 5 7 8 9 10 11] 6{1} [1 2 3 4 5 7 8 9 10 11]*) | ([1 2 3 4 5 7 8 9 10 11]* 6{2} [1 2 3 4 5 7 8 9 10 11]{2} [1 2 3 4 5 7 8 9 10 11] [1 2 3 4 5 7 8 9 10 11]{1} 6{3} [1 2 3 4 5 7 8 9 10 11]*) | ([1 2 3 4 5 7 8 9 10 11]* 6{1} [1 2 3 4 5 7 8 9 10 11] [1 2 3 4 5 7 8 9 10 11]{3} 6{2} [1 2 3 4 5 7 8 9 10 11] [1 2 3 4 5 7 8 9 10 11]{3} 6{2} [1 2 3 4 5 7 8 9 10 11]*) | ([1 2 3 4 5 7 8 9 10 11]* 6{3} [1 2 3 4 5 7 8 9 10 11]{1} [1 2 3 4 5 7 8 9 10 11] [1 2 3 4 5 7 8 9 10 11]{2} 6{2} [1 2 3 4 5 7 8 9 10 11]*) )",
    "( ([1 2 3 4 5 6 8 9 10 11]* 7{1} [1 2 3 4 5 6 8 9 10 11]*) )",
    "( ([1 2 3 4 5 6 7 9 10 11]* 8{1} [1 2 3 4 5 6 7 9 10 11]{3} [1 2 3 4 5 6 7 9 10 11] [1 2 3 4 5 6 7 9 10 11]{1} 8{1} [1 2 3 4 5 6 7 9 10 11]*) | ([1 2 3 4 5 6 7 9 10 11]* 8{2} [1 2 3 4 5 6 7 9 10 11]*) | ([1 2 3 4 5 6 7 9 10 11]* 8{1} [1 2 3 4 5 6 7 9 10 11]{1} [1 2 3 4 5 6 7 9 10 11] [1 2 3 4 5 6 7 9 10 11]{3} 8{1} [1 2 3 4 5 6 7 9 10 11]*) )",
    "( ([1 2 3 4 5 6 7 8 10 11]* 9{1} [1 2 3 4 5 6 7 8 10 11]*) )",
    "( ([1 2 3 4 5 6 7 8 9 11]* 10{1} [1 2 3 4 5 6 7 8 9 11]{1} [1 2 3 4 5 6 7 8 9 11] [1 2 3 4 5 6 7 8 9 11]{3} 10{1} [1 2 3 4 5 6 7 8 9 11]*) | ([1 2 3 4 5 6 7 8 9 11]* 10{2} [1 2 3 4 5 6 7 8 9 11]*) | ([1 2 3 4 5 6 7 8 9 11]* 10{1} [1 2 3 4 5 6 7 8 9 11]{3} [1 2 3 4 5 6 7 8 9 11] [1 2 3 4 5 6 7 8 9 11]{1} 10{1} [1 2 3 4 5 6 7 8 9 11]*) )",
];
